33D32945 STP File, STP Format Version 1.0

SECTION Comment
Name    "i160-145"
Creator "Cees Duin"
Remark  "Incidence graph"
END

SECTION Graph
Nodes 160
Edges 2544
E 1 2 295
E 1 5 298
E 1 6 293
E 1 18 204
E 1 20 206
E 1 21 209
E 1 22 204
E 1 27 203
E 1 32 202
E 1 41 198
E 1 43 204
E 1 48 205
E 1 57 202
E 1 58 204
E 1 60 196
E 1 63 206
E 1 65 200
E 1 67 192
E 1 74 194
E 1 79 197
E 1 80 198
E 1 82 205
E 1 84 204
E 1 92 194
E 1 96 191
E 1 106 199
E 1 115 197
E 1 116 204
E 1 126 210
E 1 132 191
E 1 138 194
E 1 146 198
E 1 150 196
E 1 158 203
E 1 160 197
E 2 6 307
E 2 15 198
E 2 17 199
E 2 24 205
E 2 31 194
E 2 41 202
E 2 43 197
E 2 50 193
E 2 55 212
E 2 67 198
E 2 69 194
E 2 70 192
E 2 73 206
E 2 74 202
E 2 75 199
E 2 76 200
E 2 77 203
E 2 81 204
E 2 91 196
E 2 102 192
E 2 103 209
E 2 111 199
E 2 120 190
E 2 129 196
E 2 138 200
E 2 143 200
E 2 148 195
E 2 149 200
E 2 155 214
E 3 6 295
E 3 8 303
E 3 12 292
E 3 23 204
E 3 24 191
E 3 25 201
E 3 33 202
E 3 46 203
E 3 47 203
E 3 53 195
E 3 54 204
E 3 63 206
E 3 65 204
E 3 67 201
E 3 76 206
E 3 81 196
E 3 83 199
E 3 86 198
E 3 87 198
E 3 97 196
E 3 111 203
E 3 112 194
E 3 125 192
E 3 129 205
E 3 131 191
E 3 138 207
E 3 144 202
E 3 147 205
E 3 149 192
E 3 152 193
E 3 153 207
E 3 158 200
E 4 14 202
E 4 22 196
E 4 38 187
E 4 49 199
E 4 63 210
E 4 64 206
E 4 69 204
E 4 71 194
E 4 72 196
E 4 84 193
E 4 88 209
E 4 92 201
E 4 102 200
E 4 112 205
E 4 122 198
E 4 130 197
E 4 132 195
E 4 149 205
E 4 150 199
E 4 158 203
E 5 15 194
E 5 26 199
E 5 27 195
E 5 29 203
E 5 41 191
E 5 48 198
E 5 53 196
E 5 55 195
E 5 60 184
E 5 77 201
E 5 81 206
E 5 87 207
E 5 96 188
E 5 99 208
E 5 102 201
E 5 112 189
E 5 114 190
E 5 118 199
E 5 120 204
E 5 124 201
E 5 132 197
E 5 139 193
E 5 142 205
E 5 145 195
E 5 152 190
E 5 160 203
E 6 7 290
E 6 9 293
E 6 13 194
E 6 15 193
E 6 16 212
E 6 17 199
E 6 19 198
E 6 24 202
E 6 28 201
E 6 32 203
E 6 38 189
E 6 46 195
E 6 48 203
E 6 49 198
E 6 51 198
E 6 56 201
E 6 57 202
E 6 59 195
E 6 61 198
E 6 62 198
E 6 63 199
E 6 64 199
E 6 65 196
E 6 68 201
E 6 70 201
E 6 74 197
E 6 79 197
E 6 88 203
E 6 95 200
E 6 97 200
E 6 98 205
E 6 100 200
E 6 104 207
E 6 129 203
E 6 130 194
E 6 134 199
E 6 150 198
E 6 151 192
E 6 152 194
E 6 153 198
E 6 154 195
E 6 157 198
E 6 159 209
E 7 12 287
E 7 14 205
E 7 15 195
E 7 19 208
E 7 21 203
E 7 24 204
E 7 29 197
E 7 31 196
E 7 34 200
E 7 39 204
E 7 46 204
E 7 54 200
E 7 58 198
E 7 60 208
E 7 65 209
E 7 66 200
E 7 67 206
E 7 71 196
E 7 77 204
E 7 78 204
E 7 82 194
E 7 95 199
E 7 102 197
E 7 105 197
E 7 107 201
E 7 108 197
E 7 115 202
E 7 117 195
E 7 124 204
E 7 127 206
E 7 129 206
E 7 138 197
E 7 139 197
E 7 140 199
E 7 146 204
E 7 148 199
E 7 151 208
E 7 157 202
E 7 158 200
E 8 11 299
E 8 12 299
E 8 14 201
E 8 20 189
E 8 23 200
E 8 30 200
E 8 35 205
E 8 38 206
E 8 44 202
E 8 53 202
E 8 62 203
E 8 63 205
E 8 65 201
E 8 68 193
E 8 79 196
E 8 82 197
E 8 91 202
E 8 110 204
E 8 113 198
E 8 114 211
E 8 116 193
E 8 120 206
E 8 121 196
E 8 153 200
E 8 158 199
E 9 11 297
E 9 22 196
E 9 52 193
E 9 53 202
E 9 55 201
E 9 59 204
E 9 71 191
E 9 85 199
E 9 89 205
E 9 96 203
E 9 104 207
E 9 106 196
E 9 108 199
E 9 113 198
E 9 117 195
E 9 118 199
E 9 123 201
E 9 125 201
E 9 133 204
E 9 134 198
E 9 152 196
E 9 154 200
E 9 157 194
E 10 14 195
E 10 25 194
E 10 27 204
E 10 29 199
E 10 31 200
E 10 34 201
E 10 35 202
E 10 37 198
E 10 49 196
E 10 59 196
E 10 64 205
E 10 71 194
E 10 76 198
E 10 78 198
E 10 80 208
E 10 84 193
E 10 85 202
E 10 100 199
E 10 101 201
E 10 108 195
E 10 116 201
E 10 117 191
E 10 118 204
E 10 124 204
E 10 129 208
E 10 137 202
E 10 139 199
E 10 142 194
E 10 145 189
E 10 148 207
E 11 12 294
E 11 18 203
E 11 19 200
E 11 20 208
E 11 25 201
E 11 36 204
E 11 38 204
E 11 39 205
E 11 42 197
E 11 43 201
E 11 49 207
E 11 50 203
E 11 53 208
E 11 56 198
E 11 59 201
E 11 75 203
E 11 79 191
E 11 80 202
E 11 83 202
E 11 84 195
E 11 85 209
E 11 86 202
E 11 93 203
E 11 94 193
E 11 96 202
E 11 98 200
E 11 101 206
E 11 103 201
E 11 107 195
E 11 115 202
E 11 126 193
E 11 128 193
E 11 132 196
E 11 133 188
E 11 137 203
E 11 141 201
E 11 156 209
E 11 160 207
E 12 19 197
E 12 20 196
E 12 22 200
E 12 24 201
E 12 26 197
E 12 27 203
E 12 37 203
E 12 39 196
E 12 47 204
E 12 52 199
E 12 55 195
E 12 58 193
E 12 61 192
E 12 63 196
E 12 64 199
E 12 68 195
E 12 75 199
E 12 76 195
E 12 79 194
E 12 85 199
E 12 89 195
E 12 92 197
E 12 93 205
E 12 94 190
E 12 99 200
E 12 101 201
E 12 102 198
E 12 103 200
E 12 112 197
E 12 113 198
E 12 117 190
E 12 137 195
E 12 143 202
E 12 147 201
E 12 160 207
E 13 17 95
E 13 22 99
E 13 25 105
E 13 27 93
E 13 37 107
E 13 38 105
E 13 39 98
E 13 43 105
E 13 46 97
E 13 50 94
E 13 55 99
E 13 59 100
E 13 66 104
E 13 67 98
E 13 77 95
E 13 79 89
E 13 80 91
E 13 87 99
E 13 94 97
E 13 102 105
E 13 113 92
E 13 119 96
E 13 127 96
E 13 138 96
E 13 142 99
E 13 144 100
E 13 148 98
E 13 159 97
E 14 19 98
E 14 22 102
E 14 23 102
E 14 44 105
E 14 52 92
E 14 59 103
E 14 60 99
E 14 63 99
E 14 66 92
E 14 75 106
E 14 76 103
E 14 87 96
E 14 93 101
E 14 100 104
E 14 104 104
E 14 110 101
E 14 112 105
E 14 115 106
E 14 130 105
E 14 131 92
E 14 156 108
E 14 158 89
E 15 20 96
E 15 21 105
E 15 29 90
E 15 31 100
E 15 34 100
E 15 35 104
E 15 39 99
E 15 41 102
E 15 42 97
E 15 47 102
E 15 57 107
E 15 65 102
E 15 67 105
E 15 73 105
E 15 75 97
E 15 79 102
E 15 84 102
E 15 86 106
E 15 102 95
E 15 105 100
E 15 107 105
E 15 115 99
E 15 116 95
E 15 133 99
E 15 145 105
E 15 149 107
E 15 152 96
E 15 153 106
E 16 20 104
E 16 21 106
E 16 22 98
E 16 30 97
E 16 32 105
E 16 34 95
E 16 36 114
E 16 37 99
E 16 41 102
E 16 50 91
E 16 52 105
E 16 53 101
E 16 56 104
E 16 62 95
E 16 63 96
E 16 72 100
E 16 84 107
E 16 89 99
E 16 100 104
E 16 106 107
E 16 129 101
E 16 134 104
E 16 135 99
E 16 137 102
E 16 141 101
E 16 157 106
E 17 30 102
E 17 34 102
E 17 37 100
E 17 38 102
E 17 41 96
E 17 44 91
E 17 45 104
E 17 47 91
E 17 50 97
E 17 51 95
E 17 52 113
E 17 53 92
E 17 54 100
E 17 66 102
E 17 77 102
E 17 81 93
E 17 91 106
E 17 94 107
E 17 95 98
E 17 101 104
E 17 106 107
E 17 114 108
E 17 118 99
E 17 120 101
E 17 121 108
E 17 122 95
E 17 123 96
E 17 131 103
E 17 134 98
E 17 136 100
E 17 140 95
E 17 144 96
E 17 145 90
E 17 147 110
E 17 148 98
E 17 159 103
E 17 160 102
E 18 20 107
E 18 25 97
E 18 31 95
E 18 32 96
E 18 35 103
E 18 39 96
E 18 63 101
E 18 64 105
E 18 65 96
E 18 67 101
E 18 73 98
E 18 83 94
E 18 84 104
E 18 86 99
E 18 87 107
E 18 90 105
E 18 93 97
E 18 97 97
E 18 100 94
E 18 105 102
E 18 106 103
E 18 107 95
E 18 115 98
E 18 118 93
E 18 125 101
E 18 127 94
E 18 128 96
E 18 138 100
E 18 141 99
E 18 144 99
E 18 151 97
E 18 156 100
E 18 158 100
E 18 159 102
E 19 20 92
E 19 24 99
E 19 31 91
E 19 32 97
E 19 52 100
E 19 59 103
E 19 62 96
E 19 64 94
E 19 67 110
E 19 78 91
E 19 89 110
E 19 91 96
E 19 99 107
E 19 100 97
E 19 110 91
E 19 114 105
E 19 116 103
E 19 118 97
E 19 119 98
E 19 120 99
E 19 121 91
E 19 125 100
E 19 130 104
E 19 136 104
E 19 148 97
E 20 21 98
E 20 28 100
E 20 32 100
E 20 35 94
E 20 39 103
E 20 46 99
E 20 47 89
E 20 52 93
E 20 56 103
E 20 63 102
E 20 68 105
E 20 77 99
E 20 79 89
E 20 83 91
E 20 85 93
E 20 86 98
E 20 87 101
E 20 91 94
E 20 96 99
E 20 103 105
E 20 104 94
E 20 106 107
E 20 107 103
E 20 112 97
E 20 115 104
E 20 116 103
E 20 122 97
E 20 129 100
E 20 134 100
E 20 137 90
E 20 138 102
E 20 139 104
E 20 143 105
E 20 147 100
E 20 153 101
E 20 158 106
E 21 22 102
E 21 23 94
E 21 28 104
E 21 30 94
E 21 36 91
E 21 42 108
E 21 43 102
E 21 66 102
E 21 69 105
E 21 75 99
E 21 78 98
E 21 89 102
E 21 92 107
E 21 93 106
E 21 98 102
E 21 99 90
E 21 106 105
E 21 120 92
E 21 126 114
E 21 129 92
E 21 137 102
E 21 138 99
E 21 147 100
E 21 150 110
E 21 151 99
E 22 26 99
E 22 49 107
E 22 52 103
E 22 77 97
E 22 78 99
E 22 82 97
E 22 87 101
E 22 89 96
E 22 91 101
E 22 103 108
E 22 105 97
E 22 106 101
E 22 109 106
E 22 110 110
E 22 112 104
E 22 120 97
E 22 124 96
E 22 159 103
E 22 160 98
E 23 25 106
E 23 43 100
E 23 44 113
E 23 45 103
E 23 46 93
E 23 48 104
E 23 56 92
E 23 58 105
E 23 64 107
E 23 65 93
E 23 68 99
E 23 69 103
E 23 72 101
E 23 77 106
E 23 89 91
E 23 94 105
E 23 95 112
E 23 126 107
E 23 127 96
E 23 130 98
E 23 135 107
E 23 136 108
E 23 139 99
E 23 144 105
E 23 149 101
E 23 155 110
E 24 29 101
E 24 32 105
E 24 37 101
E 24 41 104
E 24 42 105
E 24 45 100
E 24 53 97
E 24 61 113
E 24 64 96
E 24 67 99
E 24 69 95
E 24 80 103
E 24 84 93
E 24 87 99
E 24 89 95
E 24 93 92
E 24 94 106
E 24 95 99
E 24 98 102
E 24 103 101
E 24 109 104
E 24 111 101
E 24 112 89
E 24 125 92
E 24 130 94
E 24 135 102
E 24 138 106
E 24 143 101
E 24 144 97
E 24 145 104
E 24 149 90
E 24 150 97
E 24 158 101
E 25 34 102
E 25 36 93
E 25 38 107
E 25 43 96
E 25 46 106
E 25 49 85
E 25 51 105
E 25 52 97
E 25 58 99
E 25 62 108
E 25 69 93
E 25 70 91
E 25 78 106
E 25 89 86
E 25 92 102
E 25 96 106
E 25 98 99
E 25 107 97
E 25 108 101
E 25 117 103
E 25 123 96
E 25 125 99
E 25 127 97
E 25 134 100
E 25 135 93
E 25 139 104
E 25 144 96
E 26 27 103
E 26 36 106
E 26 52 103
E 26 53 95
E 26 58 97
E 26 73 100
E 26 84 105
E 26 91 102
E 26 99 102
E 26 107 103
E 26 114 98
E 26 116 99
E 26 118 98
E 26 121 101
E 26 125 102
E 26 128 98
E 26 131 92
E 26 136 93
E 26 138 100
E 26 147 107
E 26 153 101
E 26 158 94
E 26 159 103
E 27 32 104
E 27 34 102
E 27 37 104
E 27 43 98
E 27 44 91
E 27 49 101
E 27 60 102
E 27 71 102
E 27 77 105
E 27 85 98
E 27 86 106
E 27 88 105
E 27 90 105
E 27 104 94
E 27 107 93
E 27 110 99
E 27 119 104
E 27 123 103
E 27 128 98
E 27 131 111
E 27 133 93
E 27 134 102
E 27 137 108
E 27 139 106
E 27 147 100
E 27 156 112
E 27 158 100
E 28 34 99
E 28 36 101
E 28 44 99
E 28 61 105
E 28 66 93
E 28 67 104
E 28 69 101
E 28 78 103
E 28 79 104
E 28 87 101
E 28 96 104
E 28 104 104
E 28 105 99
E 28 106 105
E 28 107 105
E 28 113 102
E 28 123 94
E 28 130 88
E 28 133 101
E 28 144 99
E 28 153 94
E 28 158 96
E 29 30 101
E 29 31 94
E 29 33 105
E 29 35 109
E 29 37 97
E 29 40 102
E 29 43 98
E 29 50 104
E 29 65 94
E 29 69 101
E 29 71 99
E 29 76 103
E 29 78 105
E 29 82 102
E 29 87 95
E 29 88 107
E 29 92 111
E 29 95 98
E 29 100 103
E 29 101 109
E 29 105 97
E 29 106 100
E 29 109 100
E 29 110 103
E 29 112 106
E 29 113 101
E 29 125 101
E 29 128 96
E 29 130 100
E 29 141 99
E 29 146 102
E 30 31 106
E 30 32 99
E 30 38 102
E 30 39 92
E 30 43 93
E 30 51 93
E 30 55 102
E 30 63 95
E 30 64 98
E 30 67 94
E 30 71 95
E 30 85 97
E 30 86 97
E 30 87 104
E 30 88 92
E 30 93 107
E 30 94 107
E 30 101 101
E 30 105 101
E 30 107 98
E 30 112 98
E 30 115 101
E 30 123 94
E 30 128 104
E 30 130 97
E 30 137 92
E 30 146 105
E 30 150 102
E 30 152 101
E 31 37 98
E 31 38 99
E 31 41 95
E 31 52 101
E 31 62 103
E 31 73 104
E 31 75 108
E 31 76 98
E 31 77 99
E 31 79 103
E 31 84 97
E 31 88 92
E 31 95 93
E 31 105 90
E 31 112 99
E 31 120 101
E 31 123 102
E 31 131 100
E 31 136 106
E 31 137 89
E 31 139 106
E 31 141 103
E 31 143 102
E 32 33 95
E 32 39 100
E 32 40 101
E 32 41 98
E 32 42 92
E 32 43 102
E 32 44 102
E 32 50 103
E 32 54 106
E 32 65 96
E 32 68 105
E 32 70 102
E 32 72 100
E 32 83 106
E 32 86 99
E 32 87 99
E 32 99 94
E 32 107 97
E 32 111 102
E 32 123 94
E 32 125 92
E 32 129 98
E 32 138 92
E 32 142 97
E 32 143 99
E 32 153 92
E 32 156 102
E 33 35 93
E 33 41 99
E 33 56 93
E 33 57 102
E 33 64 105
E 33 66 98
E 33 77 99
E 33 81 99
E 33 87 106
E 33 91 104
E 33 102 94
E 33 104 96
E 33 105 89
E 33 111 96
E 33 115 93
E 33 127 101
E 33 129 98
E 33 134 99
E 33 135 97
E 33 143 93
E 33 144 101
E 33 148 105
E 33 160 97
E 34 38 103
E 34 39 107
E 34 52 90
E 34 54 102
E 34 56 110
E 34 57 103
E 34 63 101
E 34 69 97
E 34 75 99
E 34 86 93
E 34 90 97
E 34 92 92
E 34 94 94
E 34 95 95
E 34 104 93
E 34 105 102
E 34 107 92
E 34 113 91
E 34 122 96
E 34 130 92
E 34 133 106
E 34 137 100
E 34 140 103
E 34 143 99
E 34 144 102
E 34 146 108
E 34 147 90
E 34 152 99
E 34 156 87
E 34 160 104
E 35 36 100
E 35 37 101
E 35 45 96
E 35 48 107
E 35 54 107
E 35 55 96
E 35 57 100
E 35 61 114
E 35 70 103
E 35 72 101
E 35 90 100
E 35 92 103
E 35 93 100
E 35 105 102
E 35 108 106
E 35 109 98
E 35 112 99
E 35 114 89
E 35 120 105
E 35 123 101
E 35 125 94
E 35 128 102
E 35 131 109
E 35 135 107
E 35 138 103
E 35 139 92
E 35 148 96
E 35 152 100
E 35 156 106
E 35 157 101
E 36 50 100
E 36 54 112
E 36 55 107
E 36 67 101
E 36 74 99
E 36 76 90
E 36 78 106
E 36 80 100
E 36 83 104
E 36 86 89
E 36 89 107
E 36 91 96
E 36 106 96
E 36 109 92
E 36 115 98
E 36 116 101
E 36 124 99
E 36 125 93
E 36 136 111
E 36 137 93
E 36 141 98
E 36 147 95
E 36 149 94
E 36 150 88
E 37 44 102
E 37 60 107
E 37 62 98
E 37 63 99
E 37 72 95
E 37 76 98
E 37 80 107
E 37 85 95
E 37 88 98
E 37 98 98
E 37 100 100
E 37 104 96
E 37 111 106
E 37 121 94
E 37 126 104
E 37 128 101
E 37 130 102
E 37 148 101
E 37 150 98
E 37 153 106
E 37 155 100
E 38 43 96
E 38 48 100
E 38 54 99
E 38 61 94
E 38 64 100
E 38 67 95
E 38 71 98
E 38 77 95
E 38 93 96
E 38 101 104
E 38 103 103
E 38 104 109
E 38 116 102
E 38 126 100
E 38 129 96
E 38 132 97
E 38 133 108
E 38 148 90
E 38 152 103
E 39 40 111
E 39 42 93
E 39 46 100
E 39 48 107
E 39 52 98
E 39 53 100
E 39 64 98
E 39 65 112
E 39 69 104
E 39 71 105
E 39 75 97
E 39 76 96
E 39 77 97
E 39 78 100
E 39 81 108
E 39 91 103
E 39 94 84
E 39 96 111
E 39 99 102
E 39 103 104
E 39 109 91
E 39 111 95
E 39 114 98
E 39 115 91
E 39 116 100
E 39 123 96
E 39 124 112
E 39 127 101
E 39 130 94
E 39 134 93
E 39 139 94
E 39 148 97
E 39 150 106
E 39 156 100
E 39 160 104
E 40 43 98
E 40 46 96
E 40 47 105
E 40 53 99
E 40 55 105
E 40 60 100
E 40 62 104
E 40 66 99
E 40 70 99
E 40 71 92
E 40 72 100
E 40 74 98
E 40 83 95
E 40 87 96
E 40 88 106
E 40 105 95
E 40 110 94
E 40 113 98
E 40 117 104
E 40 120 100
E 40 127 103
E 40 129 91
E 40 131 90
E 40 133 100
E 40 149 106
E 40 154 101
E 40 155 100
E 40 157 98
E 40 158 102
E 40 160 103
E 41 43 107
E 41 50 102
E 41 56 102
E 41 67 89
E 41 68 99
E 41 70 103
E 41 82 106
E 41 86 94
E 41 87 98
E 41 89 91
E 41 104 108
E 41 105 98
E 41 106 96
E 41 107 95
E 41 109 91
E 41 110 99
E 41 127 95
E 41 129 97
E 41 134 109
E 41 136 106
E 41 141 101
E 41 148 100
E 41 151 100
E 41 157 87
E 42 47 95
E 42 72 100
E 42 73 101
E 42 78 105
E 42 90 101
E 42 91 90
E 42 97 99
E 42 98 97
E 42 103 99
E 42 109 104
E 42 110 97
E 42 113 103
E 42 121 94
E 42 124 103
E 42 132 107
E 42 139 96
E 42 143 99
E 42 154 93
E 42 155 96
E 42 156 100
E 42 157 94
E 42 158 102
E 43 44 105
E 43 49 102
E 43 63 104
E 43 70 101
E 43 71 98
E 43 72 101
E 43 78 85
E 43 81 101
E 43 85 101
E 43 95 98
E 43 102 105
E 43 103 101
E 43 106 90
E 43 107 96
E 43 111 95
E 43 120 95
E 43 126 103
E 43 129 102
E 43 133 99
E 43 138 111
E 43 139 95
E 43 141 101
E 43 148 101
E 43 151 100
E 43 153 94
E 43 155 93
E 43 160 90
E 44 47 98
E 44 52 88
E 44 56 103
E 44 58 98
E 44 63 92
E 44 70 109
E 44 71 104
E 44 73 107
E 44 77 99
E 44 83 99
E 44 86 99
E 44 99 94
E 44 104 102
E 44 107 99
E 44 112 101
E 44 113 98
E 44 116 96
E 44 117 97
E 44 121 104
E 44 132 100
E 44 155 95
E 44 156 99
E 45 54 103
E 45 61 86
E 45 64 91
E 45 65 100
E 45 72 102
E 45 75 97
E 45 79 110
E 45 81 104
E 45 84 94
E 45 86 103
E 45 93 96
E 45 99 102
E 45 102 104
E 45 108 101
E 45 110 98
E 45 112 96
E 45 117 95
E 45 128 104
E 45 129 98
E 45 131 98
E 45 148 98
E 45 150 97
E 46 51 103
E 46 58 104
E 46 64 94
E 46 67 97
E 46 71 102
E 46 73 95
E 46 76 106
E 46 87 92
E 46 88 96
E 46 90 98
E 46 94 91
E 46 106 90
E 46 110 98
E 46 111 98
E 46 116 102
E 46 119 97
E 46 123 91
E 46 130 97
E 46 131 99
E 46 133 101
E 46 136 102
E 46 141 111
E 46 143 103
E 46 145 86
E 46 146 99
E 46 153 103
E 46 155 103
E 47 49 106
E 47 62 95
E 47 65 102
E 47 75 110
E 47 76 91
E 47 92 98
E 47 97 100
E 47 98 109
E 47 108 103
E 47 109 101
E 47 115 96
E 47 117 89
E 47 118 102
E 47 126 86
E 47 127 103
E 47 129 100
E 47 133 96
E 47 134 99
E 47 145 104
E 47 147 101
E 47 149 98
E 48 56 98
E 48 67 93
E 48 76 103
E 48 77 103
E 48 80 108
E 48 85 105
E 48 89 95
E 48 108 104
E 48 121 104
E 48 132 100
E 48 154 96
E 48 156 96
E 48 157 100
E 48 158 97
E 49 61 102
E 49 62 97
E 49 66 89
E 49 68 101
E 49 69 96
E 49 77 105
E 49 80 101
E 49 86 96
E 49 88 102
E 49 90 100
E 49 93 95
E 49 101 95
E 49 104 98
E 49 107 107
E 49 120 100
E 49 123 94
E 49 126 98
E 49 137 101
E 49 148 101
E 49 151 103
E 49 154 106
E 50 51 105
E 50 53 93
E 50 55 102
E 50 62 103
E 50 64 100
E 50 69 104
E 50 75 101
E 50 85 104
E 50 87 106
E 50 88 98
E 50 96 108
E 50 100 96
E 50 102 101
E 50 110 96
E 50 119 93
E 50 120 90
E 50 122 110
E 50 138 92
E 50 140 96
E 50 143 92
E 50 145 103
E 50 146 102
E 50 149 98
E 51 53 101
E 51 60 103
E 51 62 104
E 51 82 92
E 51 94 98
E 51 95 102
E 51 112 102
E 51 113 92
E 51 114 100
E 51 115 93
E 51 122 96
E 51 126 99
E 51 129 103
E 51 132 99
E 51 136 105
E 51 143 99
E 51 150 100
E 51 156 92
E 51 158 91
E 52 56 98
E 52 58 95
E 52 60 110
E 52 61 101
E 52 68 107
E 52 70 105
E 52 71 98
E 52 72 110
E 52 73 99
E 52 76 91
E 52 83 96
E 52 85 96
E 52 89 95
E 52 96 97
E 52 99 97
E 52 107 100
E 52 108 92
E 52 112 99
E 52 117 101
E 52 128 98
E 52 137 105
E 52 138 97
E 52 141 92
E 52 144 100
E 52 146 105
E 52 147 94
E 52 149 110
E 52 154 102
E 52 160 101
E 53 60 89
E 53 77 102
E 53 81 111
E 53 88 99
E 53 93 98
E 53 95 101
E 53 96 97
E 53 101 100
E 53 102 101
E 53 103 98
E 53 109 97
E 53 112 99
E 53 114 101
E 53 116 101
E 53 121 91
E 53 125 98
E 53 131 95
E 53 137 107
E 53 138 108
E 53 139 106
E 53 142 104
E 53 144 100
E 53 146 96
E 53 148 103
E 53 149 100
E 53 150 105
E 53 154 100
E 53 156 99
E 53 160 94
E 54 56 104
E 54 58 103
E 54 64 98
E 54 67 95
E 54 68 94
E 54 73 109
E 54 74 106
E 54 76 104
E 54 79 95
E 54 82 98
E 54 83 99
E 54 89 101
E 54 96 94
E 54 98 103
E 54 106 102
E 54 108 109
E 54 121 95
E 54 122 98
E 54 124 88
E 54 126 101
E 54 132 93
E 54 134 101
E 54 145 98
E 54 148 96
E 54 156 103
E 55 56 105
E 55 58 106
E 55 62 99
E 55 63 97
E 55 64 103
E 55 66 93
E 55 69 111
E 55 80 99
E 55 83 104
E 55 89 96
E 55 97 96
E 55 107 104
E 55 117 94
E 55 118 97
E 55 125 95
E 55 128 100
E 55 129 103
E 55 139 95
E 55 148 100
E 55 150 98
E 55 153 97
E 55 156 107
E 55 157 96
E 55 159 101
E 55 160 93
E 56 57 94
E 56 64 96
E 56 67 96
E 56 68 102
E 56 74 104
E 56 83 101
E 56 98 104
E 56 102 101
E 56 105 89
E 56 109 99
E 56 114 101
E 56 118 111
E 56 124 99
E 56 125 102
E 56 137 101
E 56 142 95
E 56 143 98
E 56 150 94
E 56 152 101
E 56 153 88
E 56 154 85
E 56 155 99
E 57 62 98
E 57 66 96
E 57 74 101
E 57 100 101
E 57 102 99
E 57 103 102
E 57 104 106
E 57 109 105
E 57 110 107
E 57 111 100
E 57 123 107
E 57 124 91
E 57 125 93
E 57 137 101
E 57 149 94
E 58 60 99
E 58 68 101
E 58 70 95
E 58 81 101
E 58 90 105
E 58 96 97
E 58 98 104
E 58 106 99
E 58 108 98
E 58 111 100
E 58 113 96
E 58 120 86
E 58 129 106
E 58 152 98
E 58 154 95
E 58 156 94
E 58 158 97
E 58 159 106
E 59 63 105
E 59 65 107
E 59 68 107
E 59 70 98
E 59 74 100
E 59 77 95
E 59 79 104
E 59 87 92
E 59 90 103
E 59 91 106
E 59 93 99
E 59 98 106
E 59 101 93
E 59 105 99
E 59 106 99
E 59 107 104
E 59 110 99
E 59 119 95
E 59 123 92
E 59 133 105
E 59 139 92
E 59 141 103
E 59 154 100
E 59 155 99
E 59 158 96
E 59 159 94
E 60 76 102
E 60 80 101
E 60 86 97
E 60 91 90
E 60 94 102
E 60 103 107
E 60 105 104
E 60 106 98
E 60 116 99
E 60 117 101
E 60 121 98
E 60 131 104
E 60 135 104
E 60 136 91
E 60 139 99
E 60 143 98
E 60 152 96
E 61 62 110
E 61 66 100
E 61 68 107
E 61 70 98
E 61 84 109
E 61 85 100
E 61 87 107
E 61 90 99
E 61 91 108
E 61 97 98
E 61 102 110
E 61 105 104
E 61 111 101
E 61 115 93
E 61 118 102
E 61 119 96
E 61 122 100
E 61 129 96
E 61 136 105
E 61 142 101
E 61 148 106
E 61 153 94
E 61 157 97
E 62 64 97
E 62 66 97
E 62 69 102
E 62 71 108
E 62 72 99
E 62 88 93
E 62 91 100
E 62 101 95
E 62 121 103
E 62 136 103
E 62 144 105
E 62 150 104
E 62 151 103
E 62 153 97
E 62 154 95
E 62 155 102
E 63 64 96
E 63 66 105
E 63 72 96
E 63 76 100
E 63 82 92
E 63 85 98
E 63 88 97
E 63 99 99
E 63 102 103
E 63 107 102
E 63 113 100
E 63 118 91
E 63 122 109
E 63 123 100
E 63 124 96
E 63 125 99
E 63 126 100
E 63 131 110
E 63 148 98
E 63 151 101
E 63 153 98
E 63 154 96
E 63 155 95
E 63 157 99
E 63 159 109
E 64 69 93
E 64 80 99
E 64 92 109
E 64 108 102
E 64 133 97
E 64 142 96
E 64 143 100
E 64 144 104
E 64 145 99
E 64 150 97
E 64 155 102
E 64 158 103
E 65 68 102
E 65 84 98
E 65 86 92
E 65 95 91
E 65 97 108
E 65 99 99
E 65 100 104
E 65 103 92
E 65 118 98
E 65 120 102
E 65 125 110
E 65 128 98
E 65 132 102
E 65 135 94
E 65 139 98
E 65 146 101
E 65 149 105
E 65 151 98
E 66 67 102
E 66 70 95
E 66 72 104
E 66 80 91
E 66 81 98
E 66 84 94
E 66 86 96
E 66 88 98
E 66 89 101
E 66 93 104
E 66 97 98
E 66 98 96
E 66 104 97
E 66 109 97
E 66 121 98
E 66 123 100
E 66 127 98
E 66 128 100
E 66 130 93
E 66 133 94
E 66 135 95
E 66 142 102
E 66 145 99
E 66 150 100
E 66 153 104
E 67 70 105
E 67 73 96
E 67 74 98
E 67 82 103
E 67 89 96
E 67 95 96
E 67 107 100
E 67 114 95
E 67 116 105
E 67 121 101
E 67 123 95
E 67 125 113
E 67 126 105
E 67 127 101
E 67 149 95
E 67 155 99
E 67 156 102
E 67 157 104
E 68 69 98
E 68 74 106
E 68 77 101
E 68 85 101
E 68 92 100
E 68 100 109
E 68 111 89
E 68 117 100
E 68 118 99
E 68 123 104
E 68 124 96
E 68 125 105
E 68 132 98
E 68 135 96
E 68 145 109
E 68 156 108
E 68 158 94
E 69 71 99
E 69 79 98
E 69 91 102
E 69 95 101
E 69 99 96
E 69 104 104
E 69 106 90
E 69 108 103
E 69 116 93
E 69 124 97
E 69 130 109
E 69 136 105
E 69 139 100
E 69 144 93
E 70 73 100
E 70 74 93
E 70 83 104
E 70 90 97
E 70 91 108
E 70 97 98
E 70 99 109
E 70 100 91
E 70 107 96
E 70 108 104
E 70 124 102
E 70 131 98
E 70 134 103
E 70 135 95
E 70 136 100
E 70 145 83
E 70 149 106
E 71 82 101
E 71 83 102
E 71 85 100
E 71 99 100
E 71 100 106
E 71 105 94
E 71 107 101
E 71 113 90
E 71 126 102
E 71 129 97
E 71 131 91
E 71 132 92
E 71 137 96
E 71 139 105
E 71 146 108
E 71 148 96
E 71 149 94
E 71 152 94
E 72 97 101
E 72 115 103
E 72 117 101
E 72 120 95
E 72 121 92
E 72 124 100
E 72 134 103
E 72 143 98
E 72 151 98
E 72 154 99
E 72 160 96
E 73 76 98
E 73 79 97
E 73 85 100
E 73 91 99
E 73 107 98
E 73 114 99
E 73 116 105
E 73 118 101
E 73 122 99
E 73 125 92
E 73 128 102
E 73 132 99
E 73 139 100
E 73 144 99
E 73 146 105
E 73 155 95
E 73 158 98
E 73 160 104
E 74 79 98
E 74 80 105
E 74 82 110
E 74 84 98
E 74 87 101
E 74 91 103
E 74 93 107
E 74 101 98
E 74 102 103
E 74 111 96
E 74 116 94
E 74 120 97
E 74 124 94
E 74 126 98
E 74 150 96
E 75 84 104
E 75 96 99
E 75 97 100
E 75 98 107
E 75 99 93
E 75 100 100
E 75 101 98
E 75 102 102
E 75 112 100
E 75 113 99
E 75 116 102
E 75 118 100
E 75 120 104
E 75 125 97
E 75 130 107
E 75 131 108
E 75 137 101
E 75 151 98
E 75 154 103
E 75 155 94
E 75 158 111
E 76 78 98
E 76 83 103
E 76 89 106
E 76 98 109
E 76 116 107
E 76 123 101
E 76 124 104
E 76 127 92
E 76 150 98
E 76 158 103
E 76 160 104
E 77 79 99
E 77 96 103
E 77 98 100
E 77 111 98
E 77 112 104
E 77 129 95
E 77 130 102
E 77 136 92
E 77 142 102
E 77 143 106
E 77 150 99
E 78 91 106
E 78 92 98
E 78 93 87
E 78 94 99
E 78 99 95
E 78 100 101
E 78 114 100
E 78 117 101
E 78 122 98
E 78 132 101
E 78 139 103
E 78 141 97
E 78 146 106
E 78 147 106
E 78 152 109
E 78 155 102
E 79 83 102
E 79 87 98
E 79 88 103
E 79 91 109
E 79 96 100
E 79 98 103
E 79 101 95
E 79 112 92
E 79 126 103
E 79 127 107
E 79 133 110
E 79 137 94
E 79 138 101
E 79 140 95
E 79 142 96
E 79 155 102
E 79 158 98
E 80 86 106
E 80 88 100
E 80 91 103
E 80 98 96
E 80 99 97
E 80 104 93
E 80 108 103
E 80 118 92
E 80 119 110
E 80 120 98
E 80 121 105
E 80 122 107
E 80 131 98
E 80 133 93
E 80 134 104
E 80 137 96
E 80 150 100
E 80 154 99
E 80 155 104
E 80 157 100
E 81 83 97
E 81 87 100
E 81 97 97
E 81 99 91
E 81 102 101
E 81 106 99
E 81 108 93
E 81 114 104
E 81 123 108
E 81 125 104
E 81 133 95
E 81 134 92
E 81 139 96
E 81 140 97
E 81 144 96
E 81 156 99
E 82 97 102
E 82 100 92
E 82 101 93
E 82 110 103
E 82 120 106
E 82 122 93
E 82 124 93
E 82 132 98
E 82 138 100
E 82 140 105
E 82 142 102
E 82 148 99
E 82 152 98
E 82 160 99
E 83 86 96
E 83 87 97
E 83 101 101
E 83 102 95
E 83 106 98
E 83 114 102
E 83 118 97
E 83 120 105
E 83 122 100
E 83 124 99
E 83 127 95
E 83 131 97
E 83 133 96
E 83 134 102
E 83 141 105
E 83 148 103
E 83 153 101
E 83 155 104
E 84 89 98
E 84 90 101
E 84 94 100
E 84 96 97
E 84 99 103
E 84 102 96
E 84 103 100
E 84 105 103
E 84 107 100
E 84 109 103
E 84 113 101
E 84 114 106
E 84 119 104
E 84 125 94
E 84 135 89
E 84 137 106
E 84 139 101
E 84 146 97
E 85 86 98
E 85 88 96
E 85 91 101
E 85 97 97
E 85 101 97
E 85 112 95
E 85 113 95
E 85 130 97
E 85 135 97
E 85 144 99
E 85 149 90
E 85 157 91
E 86 87 99
E 86 93 97
E 86 103 93
E 86 106 103
E 86 111 101
E 86 114 100
E 86 119 87
E 86 125 97
E 86 126 107
E 86 128 88
E 86 132 100
E 86 137 83
E 86 140 100
E 86 142 94
E 86 143 103
E 86 144 101
E 86 147 99
E 86 152 99
E 86 159 102
E 87 92 100
E 87 96 89
E 87 99 99
E 87 119 104
E 87 124 101
E 87 125 104
E 87 128 104
E 87 145 99
E 87 147 98
E 87 155 105
E 88 89 93
E 88 100 103
E 88 105 97
E 88 128 99
E 88 129 103
E 88 130 97
E 88 135 99
E 88 136 104
E 88 149 96
E 88 152 100
E 89 91 100
E 89 107 95
E 89 115 109
E 89 124 99
E 89 127 98
E 89 129 104
E 89 130 103
E 89 132 100
E 89 140 99
E 89 143 104
E 89 144 99
E 89 145 108
E 89 152 96
E 89 155 94
E 89 156 100
E 90 92 94
E 90 96 96
E 90 98 104
E 90 99 108
E 90 102 103
E 90 104 100
E 90 115 105
E 90 120 97
E 90 128 97
E 90 129 100
E 90 142 97
E 90 145 97
E 90 153 103
E 90 155 106
E 91 94 93
E 91 102 106
E 91 103 96
E 91 108 97
E 91 111 101
E 91 114 107
E 91 119 99
E 91 120 108
E 91 122 109
E 91 129 102
E 91 130 96
E 91 133 100
E 91 137 102
E 91 138 103
E 91 139 96
E 91 143 103
E 91 149 98
E 91 151 96
E 91 155 102
E 91 160 99
E 92 100 90
E 92 101 105
E 92 108 97
E 92 109 103
E 92 117 100
E 92 118 105
E 92 125 98
E 92 126 110
E 92 127 103
E 92 130 98
E 92 136 106
E 92 144 98
E 92 147 103
E 92 150 97
E 92 156 106
E 92 158 94
E 93 98 105
E 93 100 109
E 93 101 101
E 93 107 105
E 93 111 102
E 93 113 102
E 93 116 91
E 93 118 92
E 93 123 103
E 93 125 97
E 93 128 105
E 93 150 95
E 93 153 98
E 93 156 97
E 93 160 96
E 94 96 92
E 94 97 105
E 94 98 98
E 94 99 104
E 94 105 104
E 94 107 97
E 94 112 104
E 94 115 97
E 94 118 103
E 94 119 102
E 94 120 101
E 94 122 96
E 94 123 105
E 94 124 92
E 94 131 107
E 94 132 96
E 94 133 96
E 94 135 98
E 94 138 91
E 94 140 99
E 94 141 102
E 94 142 98
E 94 143 102
E 94 148 101
E 94 157 97
E 94 159 102
E 95 98 91
E 95 111 98
E 95 114 102
E 95 118 100
E 95 120 99
E 95 130 101
E 95 133 98
E 95 137 102
E 95 138 102
E 95 140 97
E 95 145 104
E 95 150 98
E 96 98 99
E 96 111 104
E 96 114 102
E 96 115 99
E 96 123 100
E 96 126 102
E 96 127 102
E 96 129 107
E 96 142 95
E 96 144 96
E 96 153 101
E 97 103 91
E 97 104 95
E 97 119 96
E 97 125 99
E 97 127 92
E 97 129 108
E 97 132 107
E 97 138 106
E 97 140 95
E 97 148 105
E 97 150 98
E 97 157 96
E 98 101 99
E 98 108 105
E 98 110 95
E 98 156 94
E 98 159 100
E 99 103 108
E 99 105 107
E 99 111 96
E 99 113 95
E 99 118 98
E 99 127 102
E 99 129 97
E 99 132 93
E 99 135 100
E 99 137 99
E 99 140 97
E 99 149 104
E 100 103 101
E 100 121 91
E 100 142 96
E 100 153 101
E 100 159 100
E 101 106 98
E 101 109 99
E 101 123 94
E 101 132 101
E 101 134 88
E 101 142 97
E 101 146 103
E 101 150 109
E 101 156 95
E 101 160 101
E 102 111 100
E 102 115 98
E 102 116 113
E 102 132 93
E 102 133 99
E 102 136 102
E 102 137 106
E 102 147 97
E 102 148 100
E 102 152 101
E 102 157 96
E 103 106 100
E 103 107 94
E 103 111 104
E 103 112 97
E 103 114 97
E 103 116 99
E 103 119 99
E 103 122 98
E 103 131 93
E 103 134 99
E 103 135 101
E 103 140 99
E 103 141 105
E 103 144 101
E 103 147 106
E 103 150 97
E 103 154 108
E 104 105 93
E 104 106 103
E 104 108 102
E 104 110 93
E 104 113 102
E 104 117 98
E 104 125 95
E 104 128 96
E 104 130 110
E 104 139 104
E 104 150 103
E 105 112 95
E 105 115 100
E 105 117 100
E 105 121 100
E 105 130 103
E 105 138 97
E 105 141 99
E 105 142 93
E 105 159 98
E 105 160 100
E 106 109 94
E 106 113 92
E 106 114 97
E 106 116 95
E 106 117 96
E 106 118 104
E 106 120 109
E 106 122 105
E 106 127 104
E 106 130 93
E 106 136 98
E 106 137 102
E 106 145 104
E 106 149 107
E 106 155 108
E 106 159 104
E 107 129 98
E 107 143 97
E 107 153 99
E 108 113 90
E 108 128 104
E 108 130 100
E 108 131 99
E 108 140 109
E 108 155 106
E 108 159 86
E 109 110 97
E 109 111 102
E 109 128 106
E 109 131 111
E 109 134 100
E 109 141 97
E 109 144 100
E 109 153 96
E 109 154 94
E 109 156 97
E 110 117 100
E 110 125 99
E 110 127 98
E 110 129 106
E 110 131 101
E 110 136 102
E 110 140 99
E 110 143 101
E 110 147 98
E 110 153 98
E 111 113 99
E 111 114 99
E 111 121 99
E 111 126 106
E 111 134 104
E 111 135 106
E 111 136 100
E 111 139 96
E 111 146 96
E 111 153 103
E 111 159 92
E 112 115 102
E 112 120 111
E 112 121 104
E 112 134 94
E 112 141 102
E 112 144 105
E 112 146 99
E 112 149 101
E 112 150 100
E 112 153 98
E 112 155 104
E 113 118 99
E 113 124 97
E 113 129 92
E 113 135 98
E 113 136 103
E 113 147 99
E 113 150 108
E 113 151 97
E 113 155 106
E 113 156 100
E 114 115 95
E 114 124 97
E 114 131 103
E 114 134 108
E 114 135 94
E 114 140 109
E 114 146 105
E 114 159 94
E 115 128 100
E 115 132 105
E 115 154 102
E 115 157 89
E 116 128 102
E 116 135 90
E 116 136 97
E 116 142 113
E 116 143 98
E 116 144 103
E 116 152 96
E 116 155 107
E 117 118 95
E 117 121 103
E 117 123 96
E 117 126 110
E 117 127 100
E 117 130 97
E 117 138 99
E 117 142 98
E 117 145 112
E 117 146 101
E 117 147 103
E 117 149 104
E 117 153 95
E 117 155 97
E 117 157 94
E 118 130 101
E 118 134 97
E 118 136 87
E 118 144 94
E 118 148 103
E 118 154 95
E 118 155 100
E 119 129 98
E 119 132 105
E 119 135 96
E 119 136 100
E 119 140 99
E 120 122 98
E 120 124 90
E 120 137 100
E 120 142 92
E 120 154 103
E 120 159 93
E 121 122 101
E 121 123 103
E 121 137 99
E 121 144 96
E 121 147 98
E 121 152 109
E 121 155 95
E 122 126 97
E 122 131 92
E 122 139 90
E 122 143 101
E 122 151 97
E 122 154 105
E 122 159 100
E 123 124 100
E 123 131 98
E 123 132 106
E 123 134 97
E 123 136 106
E 123 152 98
E 123 156 102
E 123 158 102
E 124 125 97
E 124 126 103
E 124 131 103
E 124 136 100
E 124 151 96
E 124 157 105
E 124 158 104
E 125 129 96
E 125 133 96
E 125 138 107
E 125 139 99
E 125 152 90
E 125 154 104
E 125 156 103
E 125 160 104
E 126 134 100
E 126 137 121
E 126 138 94
E 126 146 96
E 126 147 94
E 126 148 98
E 126 156 96
E 127 128 92
E 127 136 104
E 127 137 104
E 127 139 100
E 127 144 102
E 127 145 102
E 127 148 83
E 127 155 108
E 127 156 107
E 127 157 112
E 127 158 95
E 127 159 93
E 128 129 91
E 128 138 93
E 128 140 96
E 128 146 98
E 128 148 99
E 129 133 88
E 129 137 94
E 129 141 99
E 129 142 97
E 129 145 98
E 129 153 100
E 129 158 104
E 129 160 95
E 130 139 90
E 130 142 92
E 130 149 99
E 130 154 103
E 130 159 98
E 131 132 101
E 131 136 96
E 131 138 100
E 131 142 108
E 131 145 102
E 131 150 98
E 131 159 101
E 131 160 101
E 132 133 101
E 132 134 97
E 132 147 104
E 132 149 103
E 132 152 87
E 132 154 101
E 132 156 106
E 132 158 105
E 133 138 92
E 133 140 107
E 133 157 109
E 134 145 103
E 134 154 105
E 135 136 96
E 135 145 98
E 135 149 100
E 135 156 88
E 135 159 107
E 136 145 91
E 136 148 99
E 136 153 99
E 136 154 101
E 137 147 94
E 137 158 101
E 138 145 98
E 138 146 97
E 138 147 97
E 138 156 101
E 138 159 99
E 139 140 103
E 139 142 93
E 139 147 95
E 139 150 100
E 139 152 102
E 140 147 94
E 140 156 97
E 140 159 94
E 141 151 99
E 141 152 105
E 141 160 98
E 142 147 110
E 142 153 103
E 144 158 97
E 145 149 92
E 145 152 99
E 145 153 97
E 145 154 93
E 146 147 108
E 146 150 98
E 146 151 99
E 148 153 93
E 148 159 101
E 148 160 100
E 149 150 98
E 149 155 103
E 150 151 95
E 150 153 96
E 150 159 96
E 152 157 98
E 154 160 105
E 155 156 100
E 155 157 98
E 157 159 98
E 157 160 96
E 158 159 102
E 158 160 101
END

SECTION Terminals
Terminals 12
T 1
T 2
T 3
T 4
T 5
T 6
T 7
T 8
T 9
T 10
T 11
T 12
END

EOF
